* Problem:    SC105-pow2-prescaled
* Class:      LP
* Rows:       104
* Columns:    162
* Non-zeros:  339
* Format:     Free MPS
*
NAME SC105-pow2-prescaled
ROWS
 N R0000000
 E R0000001
 E R0000002
 E R0000003
 E R0000004
 E R0000005
 E R0000006
 E R0000007
 E R0000008
 E R0000009
 E R0000010
 E R0000011
 E R0000012
 E R0000013
 E R0000014
 E R0000015
 E R0000016
 E R0000017
 E R0000018
 E R0000019
 E R0000020
 E R0000021
 E R0000022
 E R0000023
 E R0000024
 E R0000025
 E R0000026
 E R0000027
 E R0000028
 E R0000029
 E R0000030
 E R0000031
 E R0000032
 E R0000033
 E R0000034
 E R0000035
 E R0000036
 E R0000037
 E R0000038
 E R0000039
 E R0000040
 E R0000041
 E R0000042
 E R0000043
 E R0000044
 E R0000045
 E R0000046
 E R0000047
 E R0000048
 E R0000049
 E R0000050
 E R0000051
 E R0000052
 E R0000053
 E R0000054
 E R0000055
 E R0000056
 E R0000057
 E R0000058
 E R0000059
 E R0000060
 E R0000061
 E R0000062
 E R0000063
 E R0000064
 E R0000065
 E R0000066
 E R0000067
 E R0000068
 E R0000069
 E R0000070
 E R0000071
 E R0000072
 E R0000073
 E R0000074
 E R0000075
 E R0000076
 E R0000077
 E R0000078
 E R0000079
 E R0000080
 E R0000081
 E R0000082
 E R0000083
 E R0000084
 E R0000085
 E R0000086
 E R0000087
 E R0000088
 E R0000089
 E R0000090
 E R0000091
 E R0000092
 E R0000093
 E R0000094
 E R0000095
 E R0000096
 E R0000097
 E R0000098
 E R0000099
 E R0000100
 E R0000101
 E R0000102
 E R0000103
 E R0000104
COLUMNS
 c0 R0000047 1 R0000046 2
 c0 R0000002 -1
 c1 R0000047 2 R0000046 1
 c1 R0000003 -1
 c2 R0000047 1.5 R0000046 1.5
 c2 R0000004 -1
 c3 R0000000 -1 R0000005 1.1
 c3 R0000001 1
 c4 R0000053 1 R0000006 1
 c4 R0000001 -1
 c5 R0000048 -1 R0000007 -1
 c5 R0000002 1
 c6 R0000049 -1 R0000008 -1
 c6 R0000003 1
 c7 R0000050 -1 R0000009 -1
 c7 R0000004 1
 c8 R0000051 -1 R0000048 1
 c9 R0000052 -1 R0000049 1
 c10 R0000053 -1 R0000050 1
 c11 R0000052 1 R0000051 2
 c11 R0000007 -1
 c12 R0000052 2 R0000051 1
 c12 R0000008 -1
 c13 R0000052 1.5 R0000051 1.5
 c13 R0000009 -1
 c14 R0000010 1.1 R0000006 1
 c14 R0000005 -1
 c15 R0000059 1 R0000011 1
 c15 R0000006 -1
 c16 R0000054 -1 R0000012 -1
 c16 R0000007 1
 c17 R0000055 -1 R0000013 -1
 c17 R0000008 1
 c18 R0000056 -1 R0000014 -1
 c18 R0000009 1
 c19 R0000057 -1 R0000054 1
 c20 R0000058 -1 R0000055 1
 c21 R0000059 -1 R0000056 1
 c22 R0000058 2 R0000057 4
 c22 R0000012 -2
 c23 R0000058 4 R0000057 2
 c23 R0000013 -2
 c24 R0000058 6 R0000057 6
 c24 R0000014 -4
 c25 R0000015 1.1 R0000011 1
 c25 R0000010 -1
 c26 R0000065 1 R0000016 1
 c26 R0000011 -1
 c27 R0000060 -2 R0000017 -2
 c27 R0000012 2
 c28 R0000061 -2 R0000018 -2
 c28 R0000013 2
 c29 R0000062 -4 R0000019 -4
 c29 R0000014 4
 c30 R0000063 -2 R0000060 2
 c31 R0000064 -2 R0000061 2
 c32 R0000065 -4 R0000062 4
 c33 R0000064 2 R0000063 4
 c33 R0000017 -2
 c34 R0000064 4 R0000063 2
 c34 R0000018 -2
 c35 R0000064 6 R0000063 6
 c35 R0000019 -4
 c36 R0000020 1.1 R0000016 1
 c36 R0000015 -1
 c37 R0000071 1 R0000021 1
 c37 R0000016 -1
 c38 R0000066 -2 R0000022 -2
 c38 R0000017 2
 c39 R0000067 -2 R0000023 -2
 c39 R0000018 2
 c40 R0000068 -4 R0000024 -4
 c40 R0000019 4
 c41 R0000069 -2 R0000066 2
 c42 R0000070 -2 R0000067 2
 c43 R0000071 -4 R0000068 4
 c44 R0000070 4 R0000069 8
 c44 R0000022 -4
 c45 R0000070 8 R0000069 4
 c45 R0000023 -4
 c46 R0000070 12 R0000069 12
 c46 R0000024 -8
 c47 R0000025 1.1 R0000021 1
 c47 R0000020 -1
 c48 R0000077 1 R0000026 1
 c48 R0000021 -1
 c49 R0000072 -4 R0000027 -4
 c49 R0000022 4
 c50 R0000073 -4 R0000028 -4
 c50 R0000023 4
 c51 R0000074 -8 R0000029 -8
 c51 R0000024 8
 c52 R0000075 -4 R0000072 4
 c53 R0000076 -4 R0000073 4
 c54 R0000077 -8 R0000074 8
 c55 R0000076 4 R0000075 8
 c55 R0000027 -4
 c56 R0000076 8 R0000075 4
 c56 R0000028 -4
 c57 R0000076 12 R0000075 12
 c57 R0000029 -8
 c58 R0000030 1.1 R0000026 1
 c58 R0000025 -1
 c59 R0000083 2 R0000031 2
 c59 R0000026 -2
 c60 R0000078 -8 R0000032 -8
 c60 R0000027 8
 c61 R0000079 -4 R0000033 -4
 c61 R0000028 4
 c62 R0000080 -8 R0000034 -8
 c62 R0000029 8
 c63 R0000081 -8 R0000078 8
 c64 R0000082 -4 R0000079 4
 c65 R0000083 -8 R0000080 8
 c66 R0000082 8 R0000081 16
 c66 R0000032 -8
 c67 R0000082 8 R0000081 4
 c67 R0000033 -4
 c68 R0000082 12 R0000081 12
 c68 R0000034 -8
 c69 R0000035 1.1 R0000031 1
 c69 R0000030 -1
 c70 R0000089 2 R0000036 2
 c70 R0000031 -2
 c71 R0000084 -16 R0000037 -16
 c71 R0000032 16
 c72 R0000085 -8 R0000038 -8
 c72 R0000033 8
 c73 R0000086 -8 R0000039 -8
 c73 R0000034 8
 c74 R0000087 -16 R0000084 16
 c75 R0000088 -8 R0000085 8
 c76 R0000089 -8 R0000086 8
 c77 R0000088 16 R0000087 32
 c77 R0000037 -16
 c78 R0000088 16 R0000087 8
 c78 R0000038 -8
 c79 R0000088 24 R0000087 24
 c79 R0000039 -16
 c80 R0000040 1.1 R0000036 1
 c80 R0000035 -1
 c81 R0000095 2 R0000041 2
 c81 R0000036 -2
 c82 R0000090 -32 R0000042 -32
 c82 R0000037 32
 c83 R0000091 -16 R0000043 -16
 c83 R0000038 16
 c84 R0000092 -16 R0000044 -16
 c84 R0000039 16
 c85 R0000093 -32 R0000090 32
 c86 R0000094 -16 R0000091 16
 c87 R0000095 -16 R0000092 16
 c88 R0000094 16 R0000093 32
 c88 R0000042 -16
 c89 R0000094 32 R0000093 16
 c89 R0000043 -16
 c90 R0000094 24 R0000093 24
 c90 R0000044 -16
 c91 R0000045 1.1 R0000041 1
 c91 R0000040 -1
 c92 R0000101 4 R0000041 -4
 c93 R0000096 -64 R0000042 64
 c94 R0000097 -32 R0000043 32
 c95 R0000098 -4 R0000044 4
 c96 R0000099 -64 R0000096 64
 c97 R0000100 -32 R0000097 32
 c98 R0000101 -4 R0000098 4
 c99 R0000103 0.4 R0000102 -3.2
 c99 R0000100 4 R0000099 8
 c100 R0000103 -51.2 R0000102 6.4
 c100 R0000100 128 R0000099 64
 c101 R0000104 -64 R0000103 9.6
 c101 R0000102 9.6 R0000100 96
 c101 R0000099 96
 c102 R0000104 1 R0000045 -1
 c103 R0000046 1
 c104 R0000047 1
 c105 R0000048 2
 c106 R0000049 1
 c107 R0000050 1
 c108 R0000051 2
 c109 R0000052 1
 c110 R0000053 1
 c111 R0000054 4
 c112 R0000055 2
 c113 R0000056 128
 c114 R0000057 4
 c115 R0000058 2
 c116 R0000059 128
 c117 R0000060 8
 c118 R0000061 4
 c119 R0000062 256
 c120 R0000063 8
 c121 R0000064 4
 c122 R0000065 256
 c123 R0000066 16
 c124 R0000067 8
 c125 R0000068 256
 c126 R0000069 16
 c127 R0000070 8
 c128 R0000071 256
 c129 R0000072 64
 c130 R0000073 16
 c131 R0000074 512
 c132 R0000075 64
 c133 R0000076 16
 c134 R0000077 512
 c135 R0000078 512
 c136 R0000079 16
 c137 R0000080 512
 c138 R0000081 512
 c139 R0000082 16
 c140 R0000083 512
 c141 R0000084 128
 c142 R0000085 32
 c143 R0000086 1024
 c144 R0000087 128
 c145 R0000088 32
 c146 R0000089 1024
 c147 R0000090 128
 c148 R0000091 64
 c149 R0000092 1024
 c150 R0000093 128
 c151 R0000094 64
 c152 R0000095 1024
 c153 R0000096 64
 c154 R0000097 64
 c155 R0000098 256
 c156 R0000099 64
 c157 R0000100 64
 c158 R0000101 256
 c159 R0000102 64
 c160 R0000103 64
 c161 R0000104 64
RHS
 RHS1 R0000046 200 R0000047 100
 RHS1 R0000051 200 R0000052 100
 RHS1 R0000057 200 R0000058 100
 RHS1 R0000063 200 R0000064 100
 RHS1 R0000069 200 R0000070 100
 RHS1 R0000075 200 R0000076 100
 RHS1 R0000081 200 R0000082 100
 RHS1 R0000087 200 R0000088 100
 RHS1 R0000093 200 R0000094 100
 RHS1 R0000099 200 R0000100 100
ENDATA
